Route #1: 0 23 43 22 19 37 36 32 0
Route #2: 0 35 40 16 47 17 0
Route #3: 0 10 33 29 24 4 42 27 9 34 0
Route #4: 0 7 8 26 20 11 15 45 0
Route #5: 0 28 21 30 46 13 39 3 25 38 0
Route #6: 0 12 31 5 1 6 0
Route #7: 0 44 18 2 41 14 0
Cost 1262:
